1 - 0
2 - 0
3 - 0
4 - 0
5 - 0
6 - 0
7 - 0
8 - 0
9 - 0
10 - 0
11 - 0
12 - 0
13 - 0
14 - 0
15 - 0
16 - 0
17 - 0
18 - 0
19 - 0
20 - 0
21 - 0
22 - 0
23 - 10
24 - 157
25 - 213
26 - 251
27 - 252
28 - 303
29 - 417
30 - 597
31 - 797
32 - 1116
33 - 1561
34 - 2111
35 - 2849
36 - 3697
37 - 4601
38 - 5600
39 - 6632
40 - 7656
41 - 8421
42 - 8852
43 - 8939
44 - 8930
45 - 8315
46 - 7144
47 - 5716
48 - 4116
49 - 2037
50 - 0

0.1 - 10156
0.2 - 10099
0.3 - 10131
0.4 - 9914
0.5 - 10107
0.6 - 10196
0.7 - 10171
0.8 - 10089
0.9 - 10226
1 - 10201
